NAME: ../File/prFile/tspFile/tsp_file30.tsp
COMMENT: TSP file generated by Python
TYPE: TSP
DIMENSION: 30
EDGE_WEIGHT_TYPE: EUC_2D
NODE_COORD_SECTION
1 17 78
2 92 99
3 40 13
4 3 3
5 55 83
6 8 51
7 30 53
8 74 32
9 97 26
10 93 19
11 94 49
12 49 7
13 13 61
14 47 51
15 94 9
16 77 89
17 26 42
18 55 33
19 15 55
20 45 18
21 33 96
22 18 60
23 77 46
24 68 88
25 75 9
26 48 49
27 82 45
28 87 38
29 80 86
30 97 26
EOF
